c Output_time 26.03.2020 18:13:31_+0100 1585242811035749223
c ** Program information **
c program_name                          "QBRG_debug"
c version                               "0.3.20"
c date                                  "25.3.2020"
c gid_id                                "673970833836058123f633335630c185360d632e"
c author                                "Oliver Kullmann"
c url                                   "https://github.com/OKullmann/oklibrary/blob/master/Satisfiability/Transformers/Generators/Random/QBRG.cpp"
c ** Machine information **
c machine_name                          "chyna-Lenovo-G50-70"
c bogomips                              3791.08
c ** Compilation information **
c compiler_version                      "g++ 7.5.0"
c compilation_date                      "Mar_26_2020 11:16:30"
c compilation_options                   "--std=c++17 -pedantic -fmax-errors=5 -Wall -Wextra -g -D_GLIBCXX_DEBUG"
c NDEBUG                                0
c OPTIMIZE                              0
c ** Parameters **
c command-line                          "./QBRG_debug" "e40 a40 40" "573*1,1|2-2,1|3-3,1" "" "1,t" ""
c output                                "QuBlRaGe_120_573_1585242811035582217.qdimacs"
c options                               "filtered,renamed"
c num_quantifier_blocks                 3
c  quantifier_blocks                    1:e1-40 2:a41-80 3:e81-120
c num_clause-blocks                     1
c  clause-blocks                        573 * {1-40,1,1/2} | {41-80,1,1/2} | {81-120,1,1/2}
c num_e-seeds                           30+2=32
c  e-seeds                              1 0 1 0 4 120 2 40 1 40 0 40 1 573 3 1 1 1 1 2 2 2 1 1 2 3 3 1 1 2 1 1585242811035581366
p cnf 120 573
e 1 2 3 4 5 6 7 8 9 10 11 12 13 14 15 16 17 18 19 20 21 22 23 24 25 26 27 28 29 30 31 32 33 34 35 36 37 38 39 40 0
a 41 42 43 44 45 46 47 48 49 50 51 52 53 54 55 56 57 58 59 60 61 62 63 64 65 66 67 68 69 70 71 72 73 74 75 76 77 78 79 80 0
e 81 82 83 84 85 86 87 88 89 90 91 92 93 94 95 96 97 98 99 100 101 102 103 104 105 106 107 108 109 110 111 112 113 114 115 116 117 118 119 120 0
-8 47 -81 0
-6 -51 -81 0
11 55 -81 0
39 55 -81 0
-4 -60 -81 0
2 -62 -81 0
-23 66 -81 0
-39 -78 -81 0
-19 41 81 0
34 52 81 0
19 -56 81 0
-12 -57 81 0
-22 -63 81 0
-33 -74 81 0
39 76 81 0
-23 -49 -82 0
24 -53 -82 0
30 54 -82 0
-22 -57 -82 0
26 65 -82 0
-5 77 -82 0
17 -50 82 0
-4 -67 82 0
24 -68 82 0
-23 71 82 0
-33 72 82 0
-37 -73 82 0
19 44 -83 0
18 47 -83 0
-34 -70 -83 0
18 -77 -83 0
-28 47 83 0
-1 -49 83 0
-30 53 83 0
29 -56 83 0
-17 57 83 0
33 59 83 0
21 71 83 0
-28 -72 83 0
-35 72 83 0
-36 72 83 0
3 -44 -84 0
-20 -48 -84 0
25 -53 -84 0
13 -64 -84 0
-20 -64 -84 0
4 65 -84 0
5 72 -84 0
18 79 -84 0
-30 -49 84 0
16 52 84 0
20 -64 84 0
-31 72 84 0
-3 76 84 0
-22 -41 -85 0
-16 45 -85 0
-25 -49 -85 0
-40 -51 -85 0
24 59 -85 0
-17 -69 -85 0
-5 -73 -85 0
18 -74 -85 0
17 78 -85 0
-20 80 -85 0
21 46 85 0
-20 -56 85 0
-2 -65 85 0
25 69 85 0
-25 76 85 0
-26 -49 -86 0
39 49 -86 0
-26 57 -86 0
7 -60 -86 0
-4 73 -86 0
-26 50 86 0
30 57 86 0
39 67 86 0
-20 69 86 0
26 -70 86 0
15 -72 86 0
35 -41 -87 0
38 -52 -87 0
-1 -67 -87 0
18 -71 -87 0
-14 -75 -87 0
-19 -76 -87 0
23 41 87 0
-7 42 87 0
10 -52 87 0
32 -62 87 0
-12 71 87 0
-16 78 87 0
-1 -44 -88 0
8 -54 -88 0
37 -57 -88 0
9 62 -88 0
-34 66 -88 0
10 -43 88 0
17 59 88 0
2 -64 88 0
-1 -66 88 0
40 -67 88 0
-39 -69 88 0
-24 -71 88 0
22 74 88 0
15 -75 88 0
-19 77 88 0
-8 -78 88 0
-26 -48 -89 0
-34 -56 -89 0
-15 59 -89 0
-33 60 -89 0
21 62 -89 0
23 63 -89 0
-10 -65 -89 0
-21 80 -89 0
-34 -49 89 0
-1 -50 89 0
3 61 89 0
22 -70 89 0
-38 78 89 0
-21 44 -90 0
-39 48 -90 0
-5 -58 -90 0
3 59 -90 0
-40 59 -90 0
-19 -62 -90 0
-15 73 -90 0
10 -47 90 0
37 48 90 0
-4 -55 90 0
-20 56 90 0
-17 -57 90 0
31 57 90 0
2 -65 90 0
-1 -76 90 0
-6 76 90 0
-10 42 -91 0
-11 44 -91 0
-12 49 -91 0
2 -55 -91 0
3 55 -91 0
36 -57 -91 0
20 57 -91 0
-22 58 -91 0
-36 -67 -91 0
13 74 -91 0
-27 79 -91 0
-36 55 91 0
15 -61 91 0
31 62 91 0
29 65 91 0
-21 66 91 0
-36 45 -92 0
-19 -52 -92 0
7 55 -92 0
-17 58 -92 0
6 -72 -92 0
13 -75 -92 0
-5 -79 -92 0
36 79 -92 0
-18 -47 92 0
19 52 92 0
-23 -53 92 0
-29 -61 92 0
32 70 92 0
-23 77 92 0
2 46 -93 0
34 49 -93 0
-9 -51 -93 0
-13 -57 -93 0
37 -59 -93 0
12 -66 -93 0
-34 -67 -93 0
-31 69 -93 0
33 71 -93 0
26 -73 -93 0
-29 -44 93 0
-1 -45 93 0
-34 -49 93 0
-36 52 93 0
-37 57 93 0
-35 59 93 0
20 -73 93 0
-22 75 93 0
-35 -41 -94 0
15 55 -94 0
-2 44 94 0
-18 61 94 0
-8 62 94 0
31 62 94 0
36 67 94 0
38 67 94 0
-7 -79 94 0
-36 -45 -95 0
-8 47 -95 0
-3 -53 -95 0
1 -59 -95 0
12 -61 -95 0
39 -64 -95 0
31 68 -95 0
-10 54 95 0
-10 -75 95 0
13 -76 95 0
-27 -77 95 0
12 42 -96 0
-23 -43 -96 0
-23 -46 -96 0
-2 54 -96 0
8 -56 -96 0
1 56 -96 0
7 62 -96 0
-11 63 -96 0
23 63 -96 0
11 71 -96 0
39 72 -96 0
-21 -75 -96 0
35 44 96 0
2 -46 96 0
-16 -56 96 0
23 -61 96 0
33 -63 96 0
-31 -67 96 0
35 67 96 0
-10 54 -97 0
36 63 -97 0
-9 -67 -97 0
5 -71 -97 0
-26 -79 -97 0
33 -79 -97 0
-20 -45 97 0
38 -48 97 0
-31 -49 97 0
-20 -54 97 0
-21 58 97 0
-22 62 97 0
-35 -73 97 0
33 80 97 0
19 45 -98 0
12 51 -98 0
37 -58 -98 0
-13 69 -98 0
4 70 -98 0
-30 -71 -98 0
39 -74 -98 0
17 74 -98 0
-37 -52 98 0
-19 60 98 0
-6 -64 98 0
33 -74 98 0
-34 75 98 0
-30 79 98 0
-1 49 -99 0
9 58 -99 0
-14 61 -99 0
7 -76 -99 0
-5 76 -99 0
5 -42 99 0
14 -43 99 0
-33 -50 99 0
24 54 99 0
6 59 99 0
40 -66 99 0
12 46 -100 0
19 -57 -100 0
-26 61 -100 0
33 75 -100 0
-14 42 100 0
35 -44 100 0
13 46 100 0
36 47 100 0
9 -54 100 0
2 -55 100 0
7 62 100 0
30 -65 100 0
17 -74 100 0
-26 -74 100 0
14 43 -101 0
12 -50 -101 0
-30 54 -101 0
-13 -62 -101 0
33 78 -101 0
19 43 101 0
24 53 101 0
-2 -58 101 0
26 62 101 0
-27 -64 101 0
11 -65 101 0
-16 -65 101 0
28 65 101 0
30 -72 101 0
28 80 101 0
29 45 -102 0
-2 -48 -102 0
8 49 -102 0
-21 -60 -102 0
24 -70 -102 0
-14 70 -102 0
7 -73 -102 0
-9 -74 -102 0
17 -78 -102 0
-25 -42 102 0
-17 -43 102 0
28 59 102 0
19 -64 102 0
15 72 102 0
-18 -75 102 0
-13 75 102 0
-14 76 102 0
-40 -78 102 0
-15 -47 -103 0
17 50 -103 0
30 54 -103 0
-13 -55 -103 0
21 56 -103 0
20 -64 -103 0
-32 68 -103 0
-23 -72 -103 0
-25 -75 -103 0
-39 -76 -103 0
22 45 103 0
-16 47 103 0
-33 53 103 0
-39 -55 103 0
37 59 103 0
35 -60 103 0
-35 -61 103 0
14 69 103 0
-21 -71 103 0
-40 78 103 0
31 45 -104 0
18 52 -104 0
16 -58 -104 0
-5 73 -104 0
-25 -78 -104 0
7 -79 -104 0
-29 49 104 0
-33 49 104 0
33 53 104 0
11 -56 104 0
35 -58 104 0
34 62 104 0
-19 -64 104 0
20 -69 104 0
-22 76 104 0
-6 -77 104 0
17 42 -105 0
-40 -43 -105 0
34 -44 -105 0
-33 47 -105 0
36 -51 -105 0
-38 52 -105 0
2 -67 -105 0
-15 -72 -105 0
-36 72 -105 0
3 -74 -105 0
38 -64 105 0
-37 64 105 0
32 74 105 0
-28 76 105 0
9 56 -106 0
-38 -69 -106 0
-29 69 -106 0
-22 -72 -106 0
-34 -73 -106 0
-8 78 -106 0
-12 -80 -106 0
21 51 106 0
16 -52 106 0
35 53 106 0
-34 59 106 0
23 -60 106 0
-3 67 106 0
21 -69 106 0
-27 -71 106 0
5 -74 106 0
-7 -75 106 0
15 -76 106 0
-16 76 106 0
38 76 106 0
-33 -78 106 0
38 -43 -107 0
-16 -52 -107 0
-40 58 -107 0
6 -60 -107 0
7 -61 -107 0
-6 -79 -107 0
16 -79 -107 0
-7 -41 107 0
-40 -44 107 0
25 44 107 0
-19 53 107 0
8 58 107 0
-37 -69 107 0
7 74 107 0
30 -44 -108 0
39 -51 -108 0
32 -60 -108 0
27 80 -108 0
-36 -46 108 0
24 -54 108 0
1 56 108 0
-1 44 -109 0
2 -45 -109 0
9 -49 -109 0
31 -49 -109 0
-16 62 -109 0
39 69 -109 0
6 -74 -109 0
7 75 -109 0
-34 -47 109 0
-2 -49 109 0
39 57 109 0
19 63 109 0
32 -67 109 0
30 67 109 0
-37 68 109 0
26 50 -110 0
-37 -64 -110 0
-30 76 -110 0
11 -45 110 0
12 51 110 0
36 51 110 0
-13 57 110 0
13 -60 110 0
-7 -49 -111 0
-17 -49 -111 0
-26 50 -111 0
6 -51 -111 0
-25 -54 -111 0
-16 63 -111 0
17 67 -111 0
16 -46 111 0
3 46 111 0
-39 -55 111 0
-2 61 111 0
32 -72 111 0
29 49 -112 0
-11 -50 -112 0
-34 -55 -112 0
-13 55 -112 0
-32 68 -112 0
-3 -41 112 0
-31 -41 112 0
12 44 112 0
34 51 112 0
7 57 112 0
13 64 112 0
-30 64 112 0
36 -66 112 0
16 -67 112 0
-18 -69 112 0
18 -69 112 0
-6 71 112 0
-12 43 -113 0
39 -59 -113 0
29 -70 -113 0
-35 42 113 0
40 -45 113 0
38 46 113 0
-40 46 113 0
-4 -52 113 0
17 -53 113 0
14 -56 113 0
-5 -65 113 0
-10 -66 113 0
16 41 -114 0
-15 -43 -114 0
1 -50 -114 0
-23 -56 -114 0
15 57 -114 0
-37 -61 -114 0
-8 -63 -114 0
33 63 -114 0
-30 -64 -114 0
39 -67 -114 0
8 67 -114 0
-3 -71 -114 0
32 78 -114 0
-10 -80 -114 0
10 57 114 0
-5 62 114 0
-14 65 114 0
-38 -66 114 0
31 69 114 0
27 74 114 0
38 74 114 0
1 -45 -115 0
-16 -50 -115 0
18 -54 -115 0
17 -56 -115 0
2 -61 -115 0
22 63 -115 0
15 -66 -115 0
-28 -68 -115 0
-22 70 -115 0
37 -44 115 0
-14 -46 115 0
-11 51 115 0
24 -52 115 0
-21 52 115 0
-10 -65 115 0
38 -65 115 0
-1 78 115 0
-33 -79 115 0
-40 79 115 0
22 45 -116 0
7 -55 -116 0
6 55 -116 0
23 -60 -116 0
27 -63 -116 0
25 -65 -116 0
38 -71 -116 0
-23 -72 -116 0
20 72 -116 0
-5 41 116 0
-19 -42 116 0
40 -42 116 0
19 -44 116 0
23 48 116 0
17 -52 116 0
-2 58 116 0
24 -69 116 0
4 71 116 0
-27 75 116 0
20 -76 116 0
2 -42 -117 0
-38 43 -117 0
-16 47 -117 0
-4 -48 -117 0
19 -55 -117 0
-12 58 -117 0
-9 -68 -117 0
13 -72 -117 0
-15 -76 -117 0
27 76 -117 0
5 -47 117 0
-21 51 117 0
2 -63 117 0
14 -66 117 0
13 68 117 0
37 -77 117 0
31 -55 -118 0
-28 61 -118 0
-2 62 -118 0
32 62 -118 0
-14 64 -118 0
9 -49 118 0
36 53 118 0
-20 54 118 0
13 63 118 0
-27 65 118 0
-16 71 118 0
-34 80 118 0
23 -41 -119 0
-3 -43 -119 0
30 -47 -119 0
33 71 -119 0
19 -80 -119 0
-36 -50 119 0
-26 -54 119 0
-30 68 119 0
7 76 119 0
-22 -45 -120 0
4 -51 -120 0
-2 74 -120 0
21 46 120 0
14 55 120 0
35 -62 120 0
-2 -68 120 0
-20 75 120 0
16 77 120 0
7 79 120 0
